c File: flat175_3_0.col
c
c SOURCE: Joseph Culberson (joe@cs.ualberta.ca)
c DESCRIPTION: Quasi-random coloring problem
c              generated with flatness = 0
c                             probability = 0.041
c                             known coloring = 3
c                             random seed = 1050
c              Creation Date:  Wed Feb 24 10:55:13 1999
c Maximum degree = 8 Minimum degree = 1
c COLOR VERIFICATION: Using the permuted order
c under simple greedy yields the specified
c coloring number
c Color = 3 specified partitions = 3
c p edge 175 417
c cnf created by edge2cnf
p cnf 525 1951
-1 -2 0
-1 -3 0
-2 -3 0
1 2 3 0
-4 -5 0
-4 -6 0
-5 -6 0
4 5 6 0
-7 -8 0
-7 -9 0
-8 -9 0
7 8 9 0
-10 -11 0
-10 -12 0
-11 -12 0
10 11 12 0
-13 -14 0
-13 -15 0
-14 -15 0
13 14 15 0
-16 -17 0
-16 -18 0
-17 -18 0
16 17 18 0
-19 -20 0
-19 -21 0
-20 -21 0
19 20 21 0
-22 -23 0
-22 -24 0
-23 -24 0
22 23 24 0
-25 -26 0
-25 -27 0
-26 -27 0
25 26 27 0
-28 -29 0
-28 -30 0
-29 -30 0
28 29 30 0
-31 -32 0
-31 -33 0
-32 -33 0
31 32 33 0
-34 -35 0
-34 -36 0
-35 -36 0
34 35 36 0
-37 -38 0
-37 -39 0
-38 -39 0
37 38 39 0
-40 -41 0
-40 -42 0
-41 -42 0
40 41 42 0
-43 -44 0
-43 -45 0
-44 -45 0
43 44 45 0
-46 -47 0
-46 -48 0
-47 -48 0
46 47 48 0
-49 -50 0
-49 -51 0
-50 -51 0
49 50 51 0
-52 -53 0
-52 -54 0
-53 -54 0
52 53 54 0
-55 -56 0
-55 -57 0
-56 -57 0
55 56 57 0
-58 -59 0
-58 -60 0
-59 -60 0
58 59 60 0
-61 -62 0
-61 -63 0
-62 -63 0
61 62 63 0
-64 -65 0
-64 -66 0
-65 -66 0
64 65 66 0
-67 -68 0
-67 -69 0
-68 -69 0
67 68 69 0
-70 -71 0
-70 -72 0
-71 -72 0
70 71 72 0
-73 -74 0
-73 -75 0
-74 -75 0
73 74 75 0
-76 -77 0
-76 -78 0
-77 -78 0
76 77 78 0
-79 -80 0
-79 -81 0
-80 -81 0
79 80 81 0
-82 -83 0
-82 -84 0
-83 -84 0
82 83 84 0
-85 -86 0
-85 -87 0
-86 -87 0
85 86 87 0
-88 -89 0
-88 -90 0
-89 -90 0
88 89 90 0
-91 -92 0
-91 -93 0
-92 -93 0
91 92 93 0
-94 -95 0
-94 -96 0
-95 -96 0
94 95 96 0
-97 -98 0
-97 -99 0
-98 -99 0
97 98 99 0
-100 -101 0
-100 -102 0
-101 -102 0
100 101 102 0
-103 -104 0
-103 -105 0
-104 -105 0
103 104 105 0
-106 -107 0
-106 -108 0
-107 -108 0
106 107 108 0
-109 -110 0
-109 -111 0
-110 -111 0
109 110 111 0
-112 -113 0
-112 -114 0
-113 -114 0
112 113 114 0
-115 -116 0
-115 -117 0
-116 -117 0
115 116 117 0
-118 -119 0
-118 -120 0
-119 -120 0
118 119 120 0
-121 -122 0
-121 -123 0
-122 -123 0
121 122 123 0
-124 -125 0
-124 -126 0
-125 -126 0
124 125 126 0
-127 -128 0
-127 -129 0
-128 -129 0
127 128 129 0
-130 -131 0
-130 -132 0
-131 -132 0
130 131 132 0
-133 -134 0
-133 -135 0
-134 -135 0
133 134 135 0
-136 -137 0
-136 -138 0
-137 -138 0
136 137 138 0
-139 -140 0
-139 -141 0
-140 -141 0
139 140 141 0
-142 -143 0
-142 -144 0
-143 -144 0
142 143 144 0
-145 -146 0
-145 -147 0
-146 -147 0
145 146 147 0
-148 -149 0
-148 -150 0
-149 -150 0
148 149 150 0
-151 -152 0
-151 -153 0
-152 -153 0
151 152 153 0
-154 -155 0
-154 -156 0
-155 -156 0
154 155 156 0
-157 -158 0
-157 -159 0
-158 -159 0
157 158 159 0
-160 -161 0
-160 -162 0
-161 -162 0
160 161 162 0
-163 -164 0
-163 -165 0
-164 -165 0
163 164 165 0
-166 -167 0
-166 -168 0
-167 -168 0
166 167 168 0
-169 -170 0
-169 -171 0
-170 -171 0
169 170 171 0
-172 -173 0
-172 -174 0
-173 -174 0
172 173 174 0
-175 -176 0
-175 -177 0
-176 -177 0
175 176 177 0
-178 -179 0
-178 -180 0
-179 -180 0
178 179 180 0
-181 -182 0
-181 -183 0
-182 -183 0
181 182 183 0
-184 -185 0
-184 -186 0
-185 -186 0
184 185 186 0
-187 -188 0
-187 -189 0
-188 -189 0
187 188 189 0
-190 -191 0
-190 -192 0
-191 -192 0
190 191 192 0
-193 -194 0
-193 -195 0
-194 -195 0
193 194 195 0
-196 -197 0
-196 -198 0
-197 -198 0
196 197 198 0
-199 -200 0
-199 -201 0
-200 -201 0
199 200 201 0
-202 -203 0
-202 -204 0
-203 -204 0
202 203 204 0
-205 -206 0
-205 -207 0
-206 -207 0
205 206 207 0
-208 -209 0
-208 -210 0
-209 -210 0
208 209 210 0
-211 -212 0
-211 -213 0
-212 -213 0
211 212 213 0
-214 -215 0
-214 -216 0
-215 -216 0
214 215 216 0
-217 -218 0
-217 -219 0
-218 -219 0
217 218 219 0
-220 -221 0
-220 -222 0
-221 -222 0
220 221 222 0
-223 -224 0
-223 -225 0
-224 -225 0
223 224 225 0
-226 -227 0
-226 -228 0
-227 -228 0
226 227 228 0
-229 -230 0
-229 -231 0
-230 -231 0
229 230 231 0
-232 -233 0
-232 -234 0
-233 -234 0
232 233 234 0
-235 -236 0
-235 -237 0
-236 -237 0
235 236 237 0
-238 -239 0
-238 -240 0
-239 -240 0
238 239 240 0
-241 -242 0
-241 -243 0
-242 -243 0
241 242 243 0
-244 -245 0
-244 -246 0
-245 -246 0
244 245 246 0
-247 -248 0
-247 -249 0
-248 -249 0
247 248 249 0
-250 -251 0
-250 -252 0
-251 -252 0
250 251 252 0
-253 -254 0
-253 -255 0
-254 -255 0
253 254 255 0
-256 -257 0
-256 -258 0
-257 -258 0
256 257 258 0
-259 -260 0
-259 -261 0
-260 -261 0
259 260 261 0
-262 -263 0
-262 -264 0
-263 -264 0
262 263 264 0
-265 -266 0
-265 -267 0
-266 -267 0
265 266 267 0
-268 -269 0
-268 -270 0
-269 -270 0
268 269 270 0
-271 -272 0
-271 -273 0
-272 -273 0
271 272 273 0
-274 -275 0
-274 -276 0
-275 -276 0
274 275 276 0
-277 -278 0
-277 -279 0
-278 -279 0
277 278 279 0
-280 -281 0
-280 -282 0
-281 -282 0
280 281 282 0
-283 -284 0
-283 -285 0
-284 -285 0
283 284 285 0
-286 -287 0
-286 -288 0
-287 -288 0
286 287 288 0
-289 -290 0
-289 -291 0
-290 -291 0
289 290 291 0
-292 -293 0
-292 -294 0
-293 -294 0
292 293 294 0
-295 -296 0
-295 -297 0
-296 -297 0
295 296 297 0
-298 -299 0
-298 -300 0
-299 -300 0
298 299 300 0
-301 -302 0
-301 -303 0
-302 -303 0
301 302 303 0
-304 -305 0
-304 -306 0
-305 -306 0
304 305 306 0
-307 -308 0
-307 -309 0
-308 -309 0
307 308 309 0
-310 -311 0
-310 -312 0
-311 -312 0
310 311 312 0
-313 -314 0
-313 -315 0
-314 -315 0
313 314 315 0
-316 -317 0
-316 -318 0
-317 -318 0
316 317 318 0
-319 -320 0
-319 -321 0
-320 -321 0
319 320 321 0
-322 -323 0
-322 -324 0
-323 -324 0
322 323 324 0
-325 -326 0
-325 -327 0
-326 -327 0
325 326 327 0
-328 -329 0
-328 -330 0
-329 -330 0
328 329 330 0
-331 -332 0
-331 -333 0
-332 -333 0
331 332 333 0
-334 -335 0
-334 -336 0
-335 -336 0
334 335 336 0
-337 -338 0
-337 -339 0
-338 -339 0
337 338 339 0
-340 -341 0
-340 -342 0
-341 -342 0
340 341 342 0
-343 -344 0
-343 -345 0
-344 -345 0
343 344 345 0
-346 -347 0
-346 -348 0
-347 -348 0
346 347 348 0
-349 -350 0
-349 -351 0
-350 -351 0
349 350 351 0
-352 -353 0
-352 -354 0
-353 -354 0
352 353 354 0
-355 -356 0
-355 -357 0
-356 -357 0
355 356 357 0
-358 -359 0
-358 -360 0
-359 -360 0
358 359 360 0
-361 -362 0
-361 -363 0
-362 -363 0
361 362 363 0
-364 -365 0
-364 -366 0
-365 -366 0
364 365 366 0
-367 -368 0
-367 -369 0
-368 -369 0
367 368 369 0
-370 -371 0
-370 -372 0
-371 -372 0
370 371 372 0
-373 -374 0
-373 -375 0
-374 -375 0
373 374 375 0
-376 -377 0
-376 -378 0
-377 -378 0
376 377 378 0
-379 -380 0
-379 -381 0
-380 -381 0
379 380 381 0
-382 -383 0
-382 -384 0
-383 -384 0
382 383 384 0
-385 -386 0
-385 -387 0
-386 -387 0
385 386 387 0
-388 -389 0
-388 -390 0
-389 -390 0
388 389 390 0
-391 -392 0
-391 -393 0
-392 -393 0
391 392 393 0
-394 -395 0
-394 -396 0
-395 -396 0
394 395 396 0
-397 -398 0
-397 -399 0
-398 -399 0
397 398 399 0
-400 -401 0
-400 -402 0
-401 -402 0
400 401 402 0
-403 -404 0
-403 -405 0
-404 -405 0
403 404 405 0
-406 -407 0
-406 -408 0
-407 -408 0
406 407 408 0
-409 -410 0
-409 -411 0
-410 -411 0
409 410 411 0
-412 -413 0
-412 -414 0
-413 -414 0
412 413 414 0
-415 -416 0
-415 -417 0
-416 -417 0
415 416 417 0
-418 -419 0
-418 -420 0
-419 -420 0
418 419 420 0
-421 -422 0
-421 -423 0
-422 -423 0
421 422 423 0
-424 -425 0
-424 -426 0
-425 -426 0
424 425 426 0
-427 -428 0
-427 -429 0
-428 -429 0
427 428 429 0
-430 -431 0
-430 -432 0
-431 -432 0
430 431 432 0
-433 -434 0
-433 -435 0
-434 -435 0
433 434 435 0
-436 -437 0
-436 -438 0
-437 -438 0
436 437 438 0
-439 -440 0
-439 -441 0
-440 -441 0
439 440 441 0
-442 -443 0
-442 -444 0
-443 -444 0
442 443 444 0
-445 -446 0
-445 -447 0
-446 -447 0
445 446 447 0
-448 -449 0
-448 -450 0
-449 -450 0
448 449 450 0
-451 -452 0
-451 -453 0
-452 -453 0
451 452 453 0
-454 -455 0
-454 -456 0
-455 -456 0
454 455 456 0
-457 -458 0
-457 -459 0
-458 -459 0
457 458 459 0
-460 -461 0
-460 -462 0
-461 -462 0
460 461 462 0
-463 -464 0
-463 -465 0
-464 -465 0
463 464 465 0
-466 -467 0
-466 -468 0
-467 -468 0
466 467 468 0
-469 -470 0
-469 -471 0
-470 -471 0
469 470 471 0
-472 -473 0
-472 -474 0
-473 -474 0
472 473 474 0
-475 -476 0
-475 -477 0
-476 -477 0
475 476 477 0
-478 -479 0
-478 -480 0
-479 -480 0
478 479 480 0
-481 -482 0
-481 -483 0
-482 -483 0
481 482 483 0
-484 -485 0
-484 -486 0
-485 -486 0
484 485 486 0
-487 -488 0
-487 -489 0
-488 -489 0
487 488 489 0
-490 -491 0
-490 -492 0
-491 -492 0
490 491 492 0
-493 -494 0
-493 -495 0
-494 -495 0
493 494 495 0
-496 -497 0
-496 -498 0
-497 -498 0
496 497 498 0
-499 -500 0
-499 -501 0
-500 -501 0
499 500 501 0
-502 -503 0
-502 -504 0
-503 -504 0
502 503 504 0
-505 -506 0
-505 -507 0
-506 -507 0
505 506 507 0
-508 -509 0
-508 -510 0
-509 -510 0
508 509 510 0
-511 -512 0
-511 -513 0
-512 -513 0
511 512 513 0
-514 -515 0
-514 -516 0
-515 -516 0
514 515 516 0
-517 -518 0
-517 -519 0
-518 -519 0
517 518 519 0
-520 -521 0
-520 -522 0
-521 -522 0
520 521 522 0
-523 -524 0
-523 -525 0
-524 -525 0
523 524 525 0
-40 -1 0
-41 -2 0
-42 -3 0
-82 -1 0
-83 -2 0
-84 -3 0
-115 -1 0
-116 -2 0
-117 -3 0
-169 -1 0
-170 -2 0
-171 -3 0
-331 -1 0
-332 -2 0
-333 -3 0
-358 -1 0
-359 -2 0
-360 -3 0
-409 -1 0
-410 -2 0
-411 -3 0
-67 -4 0
-68 -5 0
-69 -6 0
-280 -4 0
-281 -5 0
-282 -6 0
-313 -4 0
-314 -5 0
-315 -6 0
-334 -4 0
-335 -5 0
-336 -6 0
-391 -4 0
-392 -5 0
-393 -6 0
-487 -4 0
-488 -5 0
-489 -6 0
-37 -7 0
-38 -8 0
-39 -9 0
-178 -7 0
-179 -8 0
-180 -9 0
-331 -7 0
-332 -8 0
-333 -9 0
-364 -7 0
-365 -8 0
-366 -9 0
-466 -7 0
-467 -8 0
-468 -9 0
-49 -10 0
-50 -11 0
-51 -12 0
-139 -10 0
-140 -11 0
-141 -12 0
-160 -10 0
-161 -11 0
-162 -12 0
-445 -10 0
-446 -11 0
-447 -12 0
-448 -10 0
-449 -11 0
-450 -12 0
-304 -13 0
-305 -14 0
-306 -15 0
-337 -13 0
-338 -14 0
-339 -15 0
-22 -16 0
-23 -17 0
-24 -18 0
-139 -16 0
-140 -17 0
-141 -18 0
-277 -16 0
-278 -17 0
-279 -18 0
-466 -16 0
-467 -17 0
-468 -18 0
-76 -19 0
-77 -20 0
-78 -21 0
-103 -19 0
-104 -20 0
-105 -21 0
-112 -19 0
-113 -20 0
-114 -21 0
-220 -19 0
-221 -20 0
-222 -21 0
-391 -19 0
-392 -20 0
-393 -21 0
-394 -19 0
-395 -20 0
-396 -21 0
-520 -19 0
-521 -20 0
-522 -21 0
-85 -22 0
-86 -23 0
-87 -24 0
-166 -22 0
-167 -23 0
-168 -24 0
-313 -22 0
-314 -23 0
-315 -24 0
-454 -22 0
-455 -23 0
-456 -24 0
-478 -22 0
-479 -23 0
-480 -24 0
-55 -25 0
-56 -26 0
-57 -27 0
-136 -25 0
-137 -26 0
-138 -27 0
-274 -25 0
-275 -26 0
-276 -27 0
-313 -25 0
-314 -26 0
-315 -27 0
-34 -28 0
-35 -29 0
-36 -30 0
-163 -28 0
-164 -29 0
-165 -30 0
-175 -28 0
-176 -29 0
-177 -30 0
-373 -28 0
-374 -29 0
-375 -30 0
-391 -28 0
-392 -29 0
-393 -30 0
-445 -28 0
-446 -29 0
-447 -30 0
-451 -28 0
-452 -29 0
-453 -30 0
-475 -28 0
-476 -29 0
-477 -30 0
-79 -31 0
-80 -32 0
-81 -33 0
-127 -31 0
-128 -32 0
-129 -33 0
-160 -31 0
-161 -32 0
-162 -33 0
-352 -31 0
-353 -32 0
-354 -33 0
-412 -31 0
-413 -32 0
-414 -33 0
-514 -31 0
-515 -32 0
-516 -33 0
-82 -34 0
-83 -35 0
-84 -36 0
-88 -34 0
-89 -35 0
-90 -36 0
-319 -34 0
-320 -35 0
-321 -36 0
-358 -34 0
-359 -35 0
-360 -36 0
-436 -34 0
-437 -35 0
-438 -36 0
-472 -34 0
-473 -35 0
-474 -36 0
-55 -37 0
-56 -38 0
-57 -39 0
-130 -37 0
-131 -38 0
-132 -39 0
-166 -37 0
-167 -38 0
-168 -39 0
-262 -37 0
-263 -38 0
-264 -39 0
-355 -37 0
-356 -38 0
-357 -39 0
-505 -37 0
-506 -38 0
-507 -39 0
-160 -40 0
-161 -41 0
-162 -42 0
-178 -40 0
-179 -41 0
-180 -42 0
-223 -40 0
-224 -41 0
-225 -42 0
-466 -40 0
-467 -41 0
-468 -42 0
-493 -40 0
-494 -41 0
-495 -42 0
-55 -43 0
-56 -44 0
-57 -45 0
-262 -43 0
-263 -44 0
-264 -45 0
-403 -43 0
-404 -44 0
-405 -45 0
-88 -46 0
-89 -47 0
-90 -48 0
-133 -46 0
-134 -47 0
-135 -48 0
-250 -46 0
-251 -47 0
-252 -48 0
-265 -46 0
-266 -47 0
-267 -48 0
-106 -49 0
-107 -50 0
-108 -51 0
-433 -49 0
-434 -50 0
-435 -51 0
-445 -49 0
-446 -50 0
-447 -51 0
-67 -52 0
-68 -53 0
-69 -54 0
-193 -52 0
-194 -53 0
-195 -54 0
-301 -52 0
-302 -53 0
-303 -54 0
-385 -52 0
-386 -53 0
-387 -54 0
-394 -52 0
-395 -53 0
-396 -54 0
-181 -55 0
-182 -56 0
-183 -57 0
-223 -55 0
-224 -56 0
-225 -57 0
-247 -55 0
-248 -56 0
-249 -57 0
-304 -55 0
-305 -56 0
-306 -57 0
-400 -55 0
-401 -56 0
-402 -57 0
-307 -58 0
-308 -59 0
-309 -60 0
-355 -58 0
-356 -59 0
-357 -60 0
-91 -61 0
-92 -62 0
-93 -63 0
-172 -61 0
-173 -62 0
-174 -63 0
-355 -61 0
-356 -62 0
-357 -63 0
-409 -61 0
-410 -62 0
-411 -63 0
-415 -61 0
-416 -62 0
-417 -63 0
-445 -61 0
-446 -62 0
-447 -63 0
-454 -61 0
-455 -62 0
-456 -63 0
-85 -64 0
-86 -65 0
-87 -66 0
-169 -64 0
-170 -65 0
-171 -66 0
-181 -64 0
-182 -65 0
-183 -66 0
-307 -64 0
-308 -65 0
-309 -66 0
-385 -64 0
-386 -65 0
-387 -66 0
-403 -64 0
-404 -65 0
-405 -66 0
-505 -64 0
-506 -65 0
-507 -66 0
-277 -67 0
-278 -68 0
-279 -69 0
-415 -67 0
-416 -68 0
-417 -69 0
-448 -67 0
-449 -68 0
-450 -69 0
-106 -70 0
-107 -71 0
-108 -72 0
-232 -70 0
-233 -71 0
-234 -72 0
-238 -70 0
-239 -71 0
-240 -72 0
-259 -70 0
-260 -71 0
-261 -72 0
-427 -70 0
-428 -71 0
-429 -72 0
-85 -73 0
-86 -74 0
-87 -75 0
-349 -73 0
-350 -74 0
-351 -75 0
-370 -73 0
-371 -74 0
-372 -75 0
-427 -73 0
-428 -74 0
-429 -75 0
-457 -73 0
-458 -74 0
-459 -75 0
-304 -76 0
-305 -77 0
-306 -78 0
-355 -76 0
-356 -77 0
-357 -78 0
-406 -76 0
-407 -77 0
-408 -78 0
-430 -76 0
-431 -77 0
-432 -78 0
-184 -79 0
-185 -80 0
-186 -81 0
-274 -79 0
-275 -80 0
-276 -81 0
-433 -79 0
-434 -80 0
-435 -81 0
-490 -79 0
-491 -80 0
-492 -81 0
-511 -79 0
-512 -80 0
-513 -81 0
-313 -82 0
-314 -83 0
-315 -84 0
-505 -82 0
-506 -83 0
-507 -84 0
-298 -85 0
-299 -86 0
-300 -87 0
-289 -88 0
-290 -89 0
-291 -90 0
-316 -88 0
-317 -89 0
-318 -90 0
-367 -88 0
-368 -89 0
-369 -90 0
-373 -88 0
-374 -89 0
-375 -90 0
-511 -88 0
-512 -89 0
-513 -90 0
-121 -91 0
-122 -92 0
-123 -93 0
-295 -91 0
-296 -92 0
-297 -93 0
-379 -91 0
-380 -92 0
-381 -93 0
-223 -94 0
-224 -95 0
-225 -96 0
-382 -94 0
-383 -95 0
-384 -96 0
-385 -94 0
-386 -95 0
-387 -96 0
-418 -94 0
-419 -95 0
-420 -96 0
-454 -94 0
-455 -95 0
-456 -96 0
-424 -97 0
-425 -98 0
-426 -99 0
-436 -97 0
-437 -98 0
-438 -99 0
-238 -100 0
-239 -101 0
-240 -102 0
-271 -100 0
-272 -101 0
-273 -102 0
-433 -100 0
-434 -101 0
-435 -102 0
-475 -100 0
-476 -101 0
-477 -102 0
-172 -103 0
-173 -104 0
-174 -105 0
-226 -103 0
-227 -104 0
-228 -105 0
-262 -103 0
-263 -104 0
-264 -105 0
-319 -103 0
-320 -104 0
-321 -105 0
-364 -103 0
-365 -104 0
-366 -105 0
-436 -103 0
-437 -104 0
-438 -105 0
-136 -106 0
-137 -107 0
-138 -108 0
-259 -106 0
-260 -107 0
-261 -108 0
-286 -106 0
-287 -107 0
-288 -108 0
-148 -109 0
-149 -110 0
-150 -111 0
-178 -109 0
-179 -110 0
-180 -111 0
-241 -109 0
-242 -110 0
-243 -111 0
-247 -109 0
-248 -110 0
-249 -111 0
-301 -109 0
-302 -110 0
-303 -111 0
-385 -109 0
-386 -110 0
-387 -111 0
-124 -112 0
-125 -113 0
-126 -114 0
-343 -112 0
-344 -113 0
-345 -114 0
-385 -112 0
-386 -113 0
-387 -114 0
-487 -112 0
-488 -113 0
-489 -114 0
-130 -115 0
-131 -116 0
-132 -117 0
-151 -115 0
-152 -116 0
-153 -117 0
-163 -115 0
-164 -116 0
-165 -117 0
-247 -115 0
-248 -116 0
-249 -117 0
-274 -115 0
-275 -116 0
-276 -117 0
-211 -118 0
-212 -119 0
-213 -120 0
-250 -118 0
-251 -119 0
-252 -120 0
-391 -118 0
-392 -119 0
-393 -120 0
-223 -121 0
-224 -122 0
-225 -123 0
-439 -121 0
-440 -122 0
-441 -123 0
-175 -124 0
-176 -125 0
-177 -126 0
-418 -124 0
-419 -125 0
-420 -126 0
-478 -124 0
-479 -125 0
-480 -126 0
-496 -124 0
-497 -125 0
-498 -126 0
-208 -127 0
-209 -128 0
-210 -129 0
-211 -130 0
-212 -131 0
-213 -132 0
-346 -130 0
-347 -131 0
-348 -132 0
-352 -130 0
-353 -131 0
-354 -132 0
-379 -130 0
-380 -131 0
-381 -132 0
-409 -130 0
-410 -131 0
-411 -132 0
-460 -130 0
-461 -131 0
-462 -132 0
-253 -133 0
-254 -134 0
-255 -135 0
-298 -133 0
-299 -134 0
-300 -135 0
-487 -133 0
-488 -134 0
-489 -135 0
-337 -136 0
-338 -137 0
-339 -138 0
-502 -136 0
-503 -137 0
-504 -138 0
-319 -139 0
-320 -140 0
-321 -141 0
-331 -139 0
-332 -140 0
-333 -141 0
-418 -142 0
-419 -143 0
-420 -144 0
-361 -145 0
-362 -146 0
-363 -147 0
-370 -145 0
-371 -146 0
-372 -147 0
-475 -145 0
-476 -146 0
-477 -147 0
-265 -148 0
-266 -149 0
-267 -150 0
-349 -148 0
-350 -149 0
-351 -150 0
-364 -148 0
-365 -149 0
-366 -150 0
-523 -148 0
-524 -149 0
-525 -150 0
-157 -151 0
-158 -152 0
-159 -153 0
-208 -151 0
-209 -152 0
-210 -153 0
-268 -151 0
-269 -152 0
-270 -153 0
-310 -151 0
-311 -152 0
-312 -153 0
-421 -151 0
-422 -152 0
-423 -153 0
-451 -151 0
-452 -152 0
-453 -153 0
-169 -154 0
-170 -155 0
-171 -156 0
-190 -154 0
-191 -155 0
-192 -156 0
-256 -154 0
-257 -155 0
-258 -156 0
-340 -154 0
-341 -155 0
-342 -156 0
-190 -157 0
-191 -158 0
-192 -159 0
-253 -157 0
-254 -158 0
-255 -159 0
-433 -157 0
-434 -158 0
-435 -159 0
-388 -160 0
-389 -161 0
-390 -162 0
-400 -163 0
-401 -164 0
-402 -165 0
-184 -166 0
-185 -167 0
-186 -168 0
-253 -166 0
-254 -167 0
-255 -168 0
-478 -166 0
-479 -167 0
-480 -168 0
-280 -169 0
-281 -170 0
-282 -171 0
-382 -169 0
-383 -170 0
-384 -171 0
-190 -172 0
-191 -173 0
-192 -174 0
-391 -172 0
-392 -173 0
-393 -174 0
-484 -172 0
-485 -173 0
-486 -174 0
-499 -172 0
-500 -173 0
-501 -174 0
-220 -175 0
-221 -176 0
-222 -177 0
-262 -175 0
-263 -176 0
-264 -177 0
-397 -175 0
-398 -176 0
-399 -177 0
-523 -175 0
-524 -176 0
-525 -177 0
-310 -178 0
-311 -179 0
-312 -180 0
-331 -178 0
-332 -179 0
-333 -180 0
-424 -178 0
-425 -179 0
-426 -180 0
-241 -181 0
-242 -182 0
-243 -183 0
-322 -181 0
-323 -182 0
-324 -183 0
-358 -181 0
-359 -182 0
-360 -183 0
-442 -181 0
-443 -182 0
-444 -183 0
-445 -181 0
-446 -182 0
-447 -183 0
-298 -184 0
-299 -185 0
-300 -186 0
-367 -184 0
-368 -185 0
-369 -186 0
-256 -187 0
-257 -188 0
-258 -189 0
-322 -187 0
-323 -188 0
-324 -189 0
-361 -187 0
-362 -188 0
-363 -189 0
-430 -187 0
-431 -188 0
-432 -189 0
-499 -187 0
-500 -188 0
-501 -189 0
-508 -187 0
-509 -188 0
-510 -189 0
-310 -190 0
-311 -191 0
-312 -192 0
-394 -190 0
-395 -191 0
-396 -192 0
-469 -190 0
-470 -191 0
-471 -192 0
-418 -193 0
-419 -194 0
-420 -195 0
-502 -193 0
-503 -194 0
-504 -195 0
-271 -196 0
-272 -197 0
-273 -198 0
-358 -196 0
-359 -197 0
-360 -198 0
-400 -196 0
-401 -197 0
-402 -198 0
-241 -199 0
-242 -200 0
-243 -201 0
-301 -199 0
-302 -200 0
-303 -201 0
-352 -199 0
-353 -200 0
-354 -201 0
-208 -202 0
-209 -203 0
-210 -204 0
-244 -202 0
-245 -203 0
-246 -204 0
-247 -205 0
-248 -206 0
-249 -207 0
-271 -205 0
-272 -206 0
-273 -207 0
-514 -205 0
-515 -206 0
-516 -207 0
-214 -208 0
-215 -209 0
-216 -210 0
-355 -208 0
-356 -209 0
-357 -210 0
-388 -208 0
-389 -209 0
-390 -210 0
-469 -208 0
-470 -209 0
-471 -210 0
-232 -211 0
-233 -212 0
-234 -213 0
-310 -211 0
-311 -212 0
-312 -213 0
-343 -214 0
-344 -215 0
-345 -216 0
-445 -214 0
-446 -215 0
-447 -216 0
-226 -217 0
-227 -218 0
-228 -219 0
-253 -217 0
-254 -218 0
-255 -219 0
-316 -217 0
-317 -218 0
-318 -219 0
-340 -217 0
-341 -218 0
-342 -219 0
-298 -220 0
-299 -221 0
-300 -222 0
-301 -220 0
-302 -221 0
-303 -222 0
-388 -220 0
-389 -221 0
-390 -222 0
-388 -223 0
-389 -224 0
-390 -225 0
-454 -223 0
-455 -224 0
-456 -225 0
-490 -223 0
-491 -224 0
-492 -225 0
-520 -223 0
-521 -224 0
-522 -225 0
-244 -226 0
-245 -227 0
-246 -228 0
-298 -226 0
-299 -227 0
-300 -228 0
-484 -226 0
-485 -227 0
-486 -228 0
-271 -229 0
-272 -230 0
-273 -231 0
-361 -229 0
-362 -230 0
-363 -231 0
-481 -229 0
-482 -230 0
-483 -231 0
-334 -232 0
-335 -233 0
-336 -234 0
-388 -232 0
-389 -233 0
-390 -234 0
-460 -232 0
-461 -233 0
-462 -234 0
-514 -232 0
-515 -233 0
-516 -234 0
-250 -235 0
-251 -236 0
-252 -237 0
-340 -235 0
-341 -236 0
-342 -237 0
-388 -235 0
-389 -236 0
-390 -237 0
-436 -235 0
-437 -236 0
-438 -237 0
-487 -238 0
-488 -239 0
-489 -240 0
-349 -241 0
-350 -242 0
-351 -243 0
-391 -241 0
-392 -242 0
-393 -243 0
-403 -244 0
-404 -245 0
-405 -246 0
-496 -244 0
-497 -245 0
-498 -246 0
-301 -247 0
-302 -248 0
-303 -249 0
-400 -247 0
-401 -248 0
-402 -249 0
-352 -250 0
-353 -251 0
-354 -252 0
-358 -253 0
-359 -254 0
-360 -255 0
-379 -253 0
-380 -254 0
-381 -255 0
-397 -253 0
-398 -254 0
-399 -255 0
-304 -256 0
-305 -257 0
-306 -258 0
-325 -256 0
-326 -257 0
-327 -258 0
-376 -256 0
-377 -257 0
-378 -258 0
-487 -256 0
-488 -257 0
-489 -258 0
-511 -256 0
-512 -257 0
-513 -258 0
-316 -259 0
-317 -260 0
-318 -261 0
-382 -262 0
-383 -263 0
-384 -264 0
-445 -262 0
-446 -263 0
-447 -264 0
-499 -262 0
-500 -263 0
-501 -264 0
-358 -265 0
-359 -266 0
-360 -267 0
-490 -265 0
-491 -266 0
-492 -267 0
-511 -265 0
-512 -266 0
-513 -267 0
-340 -268 0
-341 -269 0
-342 -270 0
-517 -268 0
-518 -269 0
-519 -270 0
-292 -271 0
-293 -272 0
-294 -273 0
-403 -271 0
-404 -272 0
-405 -273 0
-427 -271 0
-428 -272 0
-429 -273 0
-493 -271 0
-494 -272 0
-495 -273 0
-469 -274 0
-470 -275 0
-471 -276 0
-283 -277 0
-284 -278 0
-285 -279 0
-427 -277 0
-428 -278 0
-429 -279 0
-433 -277 0
-434 -278 0
-435 -279 0
-409 -283 0
-410 -284 0
-411 -285 0
-325 -289 0
-326 -290 0
-327 -291 0
-310 -292 0
-311 -293 0
-312 -294 0
-301 -295 0
-302 -296 0
-303 -297 0
-313 -295 0
-314 -296 0
-315 -297 0
-373 -295 0
-374 -296 0
-375 -297 0
-487 -295 0
-488 -296 0
-489 -297 0
-493 -295 0
-494 -296 0
-495 -297 0
-376 -298 0
-377 -299 0
-378 -300 0
-412 -298 0
-413 -299 0
-414 -300 0
-325 -301 0
-326 -302 0
-327 -303 0
-379 -301 0
-380 -302 0
-381 -303 0
-361 -304 0
-362 -305 0
-363 -306 0
-382 -304 0
-383 -305 0
-384 -306 0
-331 -307 0
-332 -308 0
-333 -309 0
-337 -307 0
-338 -308 0
-339 -309 0
-445 -307 0
-446 -308 0
-447 -309 0
-334 -313 0
-335 -314 0
-336 -315 0
-421 -316 0
-422 -317 0
-423 -318 0
-442 -316 0
-443 -317 0
-444 -318 0
-382 -319 0
-383 -320 0
-384 -321 0
-355 -322 0
-356 -323 0
-357 -324 0
-508 -322 0
-509 -323 0
-510 -324 0
-328 -325 0
-329 -326 0
-330 -327 0
-361 -325 0
-362 -326 0
-363 -327 0
-427 -325 0
-428 -326 0
-429 -327 0
-511 -325 0
-512 -326 0
-513 -327 0
-457 -328 0
-458 -329 0
-459 -330 0
-469 -328 0
-470 -329 0
-471 -330 0
-334 -331 0
-335 -332 0
-336 -333 0
-376 -331 0
-377 -332 0
-378 -333 0
-502 -334 0
-503 -335 0
-504 -336 0
-466 -337 0
-467 -338 0
-468 -339 0
-517 -337 0
-518 -338 0
-519 -339 0
-412 -346 0
-413 -347 0
-414 -348 0
-520 -346 0
-521 -347 0
-522 -348 0
-394 -349 0
-395 -350 0
-396 -351 0
-448 -349 0
-449 -350 0
-450 -351 0
-493 -352 0
-494 -353 0
-495 -354 0
-367 -361 0
-368 -362 0
-369 -363 0
-382 -361 0
-383 -362 0
-384 -363 0
-463 -367 0
-464 -368 0
-465 -369 0
-511 -370 0
-512 -371 0
-513 -372 0
-469 -373 0
-470 -374 0
-471 -375 0
-502 -373 0
-503 -374 0
-504 -375 0
-403 -376 0
-404 -377 0
-405 -378 0
-388 -379 0
-389 -380 0
-390 -381 0
-400 -385 0
-401 -386 0
-402 -387 0
-457 -385 0
-458 -386 0
-459 -387 0
-490 -385 0
-491 -386 0
-492 -387 0
-415 -394 0
-416 -395 0
-417 -396 0
-472 -400 0
-473 -401 0
-474 -402 0
-442 -403 0
-443 -404 0
-444 -405 0
-493 -403 0
-494 -404 0
-495 -405 0
-508 -403 0
-509 -404 0
-510 -405 0
-442 -409 0
-443 -410 0
-444 -411 0
-448 -409 0
-449 -410 0
-450 -411 0
-448 -418 0
-449 -419 0
-450 -420 0
-466 -418 0
-467 -419 0
-468 -420 0
-523 -418 0
-524 -419 0
-525 -420 0
-430 -421 0
-431 -422 0
-432 -423 0
-478 -421 0
-479 -422 0
-480 -423 0
-514 -421 0
-515 -422 0
-516 -423 0
-436 -424 0
-437 -425 0
-438 -426 0
-460 -424 0
-461 -425 0
-462 -426 0
-514 -424 0
-515 -425 0
-516 -426 0
-469 -430 0
-470 -431 0
-471 -432 0
-514 -430 0
-515 -431 0
-516 -432 0
-439 -433 0
-440 -434 0
-441 -435 0
-523 -439 0
-524 -440 0
-525 -441 0
-469 -457 0
-470 -458 0
-471 -459 0
-463 -460 0
-464 -461 0
-465 -462 0
-481 -460 0
-482 -461 0
-483 -462 0
-490 -460 0
-491 -461 0
-492 -462 0
-523 -460 0
-524 -461 0
-525 -462 0
-478 -469 0
-479 -470 0
-480 -471 0
-481 -475 0
-482 -476 0
-483 -477 0
-484 -475 0
-485 -476 0
-486 -477 0
-514 -481 0
-515 -482 0
-516 -483 0
-520 -487 0
-521 -488 0
-522 -489 0
